
(set-logic ALL) 

(declare-datatype MyList ((Nil) (Cons (head Real) (tail MyList)) )) 
(declare-fun l0 () MyList) 
(declare-fun l1 () MyList) 
(declare-fun l2 () MyList) 
(declare-fun l3 () MyList) 
(declare-fun i0 () Real) 
(declare-fun i1 () Real) 
(assert (is-Cons Nil) )
(assert (is-Nil l0) )
(assert (not (= l2 l1)) )
(assert (= l1 Nil) )
(assert (not (= l2 Nil)) )
(assert (and (is-Nil Nil) (= l0 Nil) (is-Cons l3) (= l0 l1)) )
(assert (= l0 Nil) )
(assert (= l2 l2) )
(check-sat)
